15 41 106
1 4 4
1 6 1
1 11 1
1 12 2
1 14 3
2 3 5
2 5 4
2 7 3
2 9 2
2 12 5
2 14 4
3 4 5
3 6 1
3 8 4
4 9 4
4 13 4
5 6 3
5 7 1
5 8 3
5 9 4
5 12 1
5 13 5
5 14 5
5 15 2
6 7 4
6 9 1
6 13 1
7 10 2
7 11 3
7 13 3
7 14 5
8 9 1
8 15 3
9 10 5
9 11 4
9 12 5
9 13 5
9 14 4
10 13 5
11 14 3
14 15 5
